c colouring generated by benchmark framework
p edge 211 3541
v 1 25
v 2 26
v 3 30
v 4 7
v 5 6
v 6 17
v 7 5
v 8 21
v 9 4
v 10 24
v 11 2
v 12 3
v 13 13
v 14 0
v 15 8
v 16 1
v 17 22
v 18 28
v 19 3
v 20 10
v 21 1
v 22 29
v 23 23
v 24 16
v 25 18
v 26 12
v 27 20
v 28 2
v 29 0
v 30 24
v 31 6
v 32 4
v 33 19
v 34 6
v 35 10
v 36 9
v 37 29
v 38 18
v 39 28
v 40 17
v 41 11
v 42 13
v 43 29
v 44 2
v 45 14
v 46 4
v 47 27
v 48 18
v 49 14
v 50 9
v 51 12
v 52 24
v 53 7
v 54 10
v 55 0
v 56 23
v 57 18
v 58 14
v 59 15
v 60 16
v 61 15
v 62 7
v 63 7
v 64 7
v 65 5
v 66 15
v 67 5
v 68 7
v 69 31
v 70 9
v 71 9
v 72 9
v 73 9
v 74 9
v 75 15
v 76 9
v 77 31
v 78 14
v 79 11
v 80 14
v 81 9
v 82 9
v 83 21
v 84 14
v 85 9
v 86 27
v 87 23
v 88 28
v 89 26
v 90 18
v 91 9
v 92 9
v 93 9
v 94 4
v 95 26
v 96 1
v 97 9
v 98 10
v 99 10
v 100 4
v 101 11
v 102 10
v 103 19
v 104 5
v 105 5
v 106 15
v 107 16
v 108 15
v 109 15
v 110 31
v 111 31
v 112 3
v 113 22
v 114 30
v 115 16
v 116 6
v 117 15
v 118 30
v 119 19
v 120 23
v 121 27
v 122 23
v 123 25
v 124 23
v 125 16
v 126 27
v 127 23
v 128 14
v 129 10
v 130 10
v 131 12
v 132 28
v 133 27
v 134 23
v 135 19
v 136 15
v 137 10
v 138 14
v 139 11
v 140 13
v 141 30
v 142 11
v 143 9
v 144 8
v 145 23
v 146 23
v 147 23
v 148 23
v 149 2
v 150 20
v 151 12
v 152 12
v 153 27
v 154 15
v 155 17
v 156 15
v 157 2
v 158 8
v 159 7
v 160 12
v 161 9
v 162 23
v 163 27
v 164 23
v 165 23
v 166 18
v 167 19
v 168 27
v 169 11
v 170 19
v 171 12
v 172 23
v 173 19
v 174 27
v 175 19
v 176 27
v 177 27
v 178 31
v 179 28
v 180 28
v 181 19
v 182 19
v 183 14
v 184 14
v 185 14
v 186 14
v 187 5
v 188 3
v 189 17
v 190 23
v 191 19
v 192 27
v 193 18
v 194 28
v 195 28
v 196 31
v 197 28
v 198 28
v 199 31
v 200 27
v 201 23
v 202 28
v 203 22
v 204 28
v 205 19
v 206 19
v 207 27
v 208 18
v 209 18
v 210 15
v 211 16
